(set-logic SLHV)
(declare-hvar emp IntHeap)
(declare-locvar nil IntLoc)
(declare-datatype pt_record_0 ((Pt_R_0 (loc IntLoc))))
(declare-datatype pt_record_1 ((Pt_R_1 (data Int))))
(declare-const invalidFree_3 Bool)
(declare-const loc_3 Int)
(declare-const $r_main0_2 Int)
(declare-const $r_main0_3 Int)
(declare-const $i6_main0_2 Int)
(declare-const $i6_main0_3 Int)
(declare-const $i2_main0_2 Int)
(declare-const $i2_main0_3 Int)
(declare-locvar $p5_main0_2 IntLoc)
(declare-locvar $p5_main0_3 IntLoc)
(declare-locvar $p4_main0_2 IntLoc)
(declare-locvar $p4_main0_3 IntLoc)
(declare-locvar $p4_free_g20_2 IntLoc)
(declare-locvar $p4_free_g20_3 IntLoc)
(declare-locvar $p3_main0_2 IntLoc)
(declare-locvar $p3_main0_3 IntLoc)
(declare-locvar $p3_free_g20_2 IntLoc)
(declare-locvar $p3_free_g20_3 IntLoc)
(declare-locvar $p2_free_g20_2 IntLoc)
(declare-locvar $p2_free_g20_3 IntLoc)
(declare-locvar $p1_main0_2 IntLoc)
(declare-locvar $p1_main0_3 IntLoc)
(declare-locvar $p0_main0_2 IntLoc)
(declare-locvar $p0_main0_3 IntLoc)
(declare-const invalidFree1_3 Bool)
(declare-hvar H4_3 IntHeap)
(declare-hvar H_3 IntHeap)
(declare-hvar AH3_3 IntHeap)
(declare-hvar AH_3 IntHeap)
(declare-locvar $p1_free_g101_3 IntLoc)
(declare-locvar $p1_free_g10_3 IntLoc)
(declare-locvar $p0_free_g201_3 IntLoc)
(declare-locvar $p0_free_g20_3 IntLoc)
(declare-locvar $p0_free_g101_3 IntLoc)
(declare-locvar $p0_free_g10_3 IntLoc)
(declare-const $i1_free_g201_3 Int)
(declare-const $i1_free_g20_3 Int)
(declare-locvar $M.03_3 IntLoc)
(declare-locvar $M.0_3 IntLoc)
(declare-const invalidFree_2 Bool)
(declare-hvar h3_3 IntHeap)
(declare-locvar l6_3 IntLoc)
(declare-const d5_3 Int)
(declare-hvar H_2 IntHeap)
(declare-const d3_3 Int)
(declare-locvar l5_3 IntLoc)
(declare-const d4_3 Int)
(declare-hvar ah1 IntHeap)
(declare-hvar AH_2 IntHeap)
(declare-const d6_3 Int)
(declare-hvar ah2_3 IntHeap)
(declare-locvar $M.0_2 IntLoc)
(declare-const loc_2 Int)
(declare-const $i1_free_g20_2 Int)
(declare-locvar $p1_free_g10_2 IntLoc)
(declare-locvar $p0_free_g20_2 IntLoc)
(declare-locvar $p0_free_g10_2 IntLoc)
(declare-const $r_main01_3 Int)
(declare-const invalidFree_1 Bool)
(declare-const $r_main0_1 Int)
(declare-const $i6_main0_1 Int)
(declare-const $i2_main0_1 Int)
(declare-const $i1_free_g20_1 Int)
(declare-locvar $p4_free_g20_1 IntLoc)
(declare-locvar $p3_free_g20_1 IntLoc)
(declare-locvar $p2_free_g20_1 IntLoc)
(declare-locvar $p1_main0_1 IntLoc)
(declare-locvar $p1_free_g10_1 IntLoc)
(declare-locvar $p0_main0_1 IntLoc)
(declare-locvar $p0_free_g20_1 IntLoc)
(declare-locvar $p0_free_g10_1 IntLoc)
(declare-locvar $M.0_1 IntLoc)
(declare-hvar H3_2 IntHeap)
(declare-hvar AH2_2 IntHeap)
(declare-locvar $p5_main01_2 IntLoc)
(declare-locvar $p4_main01_2 IntLoc)
(declare-locvar $p3_main01_2 IntLoc)
(declare-hvar h1_2 IntHeap)
(declare-locvar l3_2 IntLoc)
(declare-hvar H2_2 IntHeap)
(declare-locvar l2_2 IntLoc)
(declare-hvar AH_1 IntHeap)
(declare-const d2_2 Int)
(declare-hvar H_1 IntHeap)
(declare-const loc_1 Int)
(declare-locvar $p5_main0_1 IntLoc)
(declare-locvar $p4_main0_1 IntLoc)
(declare-locvar $p3_main0_1 IntLoc)
(declare-const invalidFree_0 Bool)
(declare-const $r_main0_0 Int)
(declare-const $i6_main0_0 Int)
(declare-const $i2_main0_0 Int)
(declare-const $i1_free_g20_0 Int)
(declare-locvar $p5_main0_0 IntLoc)
(declare-locvar $p4_main0_0 IntLoc)
(declare-locvar $p4_free_g20_0 IntLoc)
(declare-locvar $p3_main0_0 IntLoc)
(declare-locvar $p3_free_g20_0 IntLoc)
(declare-locvar $p2_free_g20_0 IntLoc)
(declare-locvar $p1_free_g10_0 IntLoc)
(declare-locvar $p0_free_g20_0 IntLoc)
(declare-locvar $p0_free_g10_0 IntLoc)
(declare-hvar H1_1 IntHeap)
(declare-hvar AH1_1 IntHeap)
(declare-locvar $p1_main01_1 IntLoc)
(declare-locvar $p0_main01_1 IntLoc)
(declare-locvar $M.02_1 IntLoc)
(declare-locvar l1_1 IntLoc)
(declare-hvar AH_0 IntHeap)
(declare-const d1_1 Int)
(declare-hvar H_0 IntHeap)
(declare-locvar $M.01_1 IntLoc)
(declare-const loc_0 Int)
(assert
 (let (($x757 (= loc_3 6)))
 (let (($x654 (= $r_main0_3 $r_main0_2)))
 (let (($x631 (= $i6_main0_3 $i6_main0_2)))
 (let (($x753 (and (and (and true (= $i2_main0_3 $i2_main0_2)) $x631) $x654)))
 (let (($x621 (= $p5_main0_3 $p5_main0_2)))
 (let (($x618 (= $p4_main0_3 $p4_main0_2)))
 (let (($x615 (= $p4_free_g20_3 $p4_free_g20_2)))
 (let (($x612 (= $p3_main0_3 $p3_main0_2)))
 (let (($x609 (= $p3_free_g20_3 $p3_free_g20_2)))
 (let (($x606 (= $p2_free_g20_3 $p2_free_g20_2)))
 (let (($x603 (= $p1_main0_3 $p1_main0_2)))
 (let (($x745 (and (and (and (and true (= $p0_main0_3 $p0_main0_2)) $x603) $x606) $x609)))
 (let (($x749 (and (and (and (and $x745 $x612) $x615) $x618) $x621)))
 (let (($x852 (= invalidFree_3 invalidFree1_3)))
 (let (($x738 (= H_3 H4_3)))
 (let (($x736 (= AH_3 AH3_3)))
 (let (($x734 (= $p1_free_g10_3 $p1_free_g101_3)))
 (let (($x732 (= $p0_free_g20_3 $p0_free_g201_3)))
 (let (($x730 (= $p0_free_g10_3 $p0_free_g101_3)))
 (let (($x731 (and (and (= $M.0_3 $M.03_3) (= $i1_free_g20_3 $i1_free_g201_3)) $x730)))
 (let (($x739 (and (and (and (and $x731 $x732) $x734) $x736) $x738)))
 (let (($x678 (= $i1_free_g201_3 0)))
 (let (($x684 (or (and (and (distinct $p0_free_g201_3 nil) true) (= $i1_free_g201_3 1)) (and (not (and (distinct $p0_free_g201_3 nil) true)) $x678))))
 (let (($x686 (= $p0_free_g201_3 $M.03_3)))
 (let (($x831 (or $x686 invalidFree1_3)))
 (let (($x688 (= $M.03_3 nil)))
 (let (($x832 (or $x688 invalidFree1_3)))
 (let (($x833 (= invalidFree1_3 invalidFree_2)))
 (let (($x834 (and invalidFree_2 $x833)))
 (let (($x690 (= H4_3 h3_3)))
 (let (($x691 (= $p1_free_g101_3 l6_3)))
 (let (($x695 (= H_2 (uplus h3_3 (pt l6_3 (Pt_R_1 d5_3))))))
 (let (($x698 (= d3_3 1)))
 (let (($x700 (= $p1_free_g101_3 l5_3)))
 (let (($x704 (= H_2 (uplus h3_3 (pt l5_3 (Pt_R_1 d4_3))))))
 (let (($x707 (= d3_3 2)))
 (let (($x709 (and (=> $x707 (and (and $x704 $x700) $x690)) (=> $x698 (and (and $x695 $x691) $x690)))))
 (let (($x710 (= AH3_3 ah1)))
 (let (($x714 (= AH_2 (uplus ah1 (pt $p1_free_g101_3 (Pt_R_1 d3_3))))))
 (let (($x716 (and (and $x714 $x710) $x709)))
 (let (($x841 (or (= $p1_free_g101_3 nil) (= ah2_3 (uplus AH_2 (pt $p1_free_g101_3 (Pt_R_1 d6_3)))))))
 (let (($x842 (and $x841 invalidFree1_3)))
 (let (($x718 (= $p1_free_g101_3 $p0_free_g101_3)))
 (let (($x845 (or $x718 invalidFree_2)))
 (let (($x720 (= $p0_free_g101_3 $M.0_2)))
 (let (($x846 (or $x720 invalidFree_2)))
 (let (($x849 (and (and (and $x846 $x845) (or (or $x842 (and $x716 $x833)) $x834)) $x832)))
 (let (($x854 (and (and (and $x849 $x831) (or $x684 invalidFree1_3)) (and $x739 $x852))))
 (let (($x575 (= loc_2 4)))
 (let (($x677 (and $x575 (not (= $i6_main0_2 1)))))
 (let (($x659 (= loc_3 3)))
 (let (($x814 (= invalidFree_3 invalidFree_2)))
 (let (($x638 (= H_3 H_2)))
 (let (($x639 (and (and true (= AH_3 AH_2)) $x638)))
 (let (($x628 (= $i2_main0_3 $i2_main0_2)))
 (let (($x632 (and (and (and true (= $i1_free_g20_3 $i1_free_g20_2)) $x628) $x631)))
 (let (($x655 (and $x632 $x654)))
 (let (($x600 (= $p1_free_g10_3 $p1_free_g10_2)))
 (let (($x597 (= $p0_main0_3 $p0_main0_2)))
 (let (($x594 (= $p0_free_g20_3 $p0_free_g20_2)))
 (let (($x591 (= $p0_free_g10_3 $p0_free_g10_2)))
 (let (($x601 (and (and (and (and (and true (= $M.0_3 $M.0_2)) $x591) $x594) $x597) $x600)))
 (let (($x619 (and (and (and (and (and (and $x601 $x603) $x606) $x609) $x612) $x615) $x618)))
 (let (($x622 (and $x619 $x621)))
 (let (($x821 (and (and (and (or true invalidFree_2) (and true true)) $x622) $x655)))
 (let (($x649 (= $i6_main0_2 1)))
 (let (($x650 (and $x575 $x649)))
 (let (($x646 (= loc_3 5)))
 (let (($x584 (= $r_main0_3 $r_main01_3)))
 (let (($x585 (and $x584 true)))
 (let (($x581 (= $r_main01_3 0)))
 (let (($x808 (or $x581 invalidFree_2)))
 (let (($x816 (and (and (and (and (and (and $x808 $x585) $x622) $x632) $x639) $x814) $x646)))
 (let (($x503 (= loc_2 3)))
 (let (($x826 (and (=> $x503 $x816) (=> $x650 (and (and (and $x821 $x639) $x814) $x659)))))
 (let (($x788 (= invalidFree_2 invalidFree_1)))
 (let (($x488 (= $r_main0_2 $r_main0_1)))
 (let (($x485 (= $i6_main0_2 $i6_main0_1)))
 (let (($x482 (= $i2_main0_2 $i2_main0_1)))
 (let (($x486 (and (and (and true (= $i1_free_g20_2 $i1_free_g20_1)) $x482) $x485)))
 (let (($x489 (and $x486 $x488)))
 (let (($x469 (= $p4_free_g20_2 $p4_free_g20_1)))
 (let (($x463 (= $p3_free_g20_2 $p3_free_g20_1)))
 (let (($x460 (= $p2_free_g20_2 $p2_free_g20_1)))
 (let (($x457 (= $p1_main0_2 $p1_main0_1)))
 (let (($x454 (= $p1_free_g10_2 $p1_free_g10_1)))
 (let (($x451 (= $p0_main0_2 $p0_main0_1)))
 (let (($x448 (= $p0_free_g20_2 $p0_free_g20_1)))
 (let (($x445 (= $p0_free_g10_2 $p0_free_g10_1)))
 (let (($x455 (and (and (and (and (and true (= $M.0_2 $M.0_1)) $x445) $x448) $x451) $x454)))
 (let (($x464 (and (and (and $x455 $x457) $x460) $x463)))
 (let (($x571 (and $x464 $x469)))
 (let (($x566 (= H_2 H3_2)))
 (let (($x564 (= AH_2 AH2_2)))
 (let (($x562 (= $p5_main0_2 $p5_main01_2)))
 (let (($x563 (and (and (= $p3_main0_2 $p3_main01_2) (= $p4_main0_2 $p4_main01_2)) $x562)))
 (let (($x567 (and (and $x563 $x564) $x566)))
 (let (($x799 (and $x567 true)))
 (let (($x530 (and (= H2_2 (uplus h1_2 (pt $p5_main01_2 (Pt_R_0 l3_2)))) (= H3_2 (uplus h1_2 (pt $p5_main01_2 (Pt_R_0 $p3_main01_2)))))))
 (let (($x792 (or $x530 invalidFree_1)))
 (let (($x541 (= $p5_main01_2 $M.0_1)))
 (let (($x793 (or $x541 invalidFree_1)))
 (let (($x543 (= $p4_main01_2 $p3_main01_2)))
 (let (($x794 (or $x543 invalidFree_1)))
 (let (($x547 (= AH2_2 (uplus AH_1 (pt l2_2 (Pt_R_1 2))))))
 (let (($x548 (= $p3_main01_2 l2_2)))
 (let (($x552 (= H2_2 (uplus H_1 (pt l2_2 (Pt_R_1 d2_2))))))
 (let (($x554 (and (and $x552 $x548) $x547)))
 (let (($x801 (and (and (and (and (and (or $x554 invalidFree_1) $x794) $x793) $x792) $x799) $x571)))
 (let (($x432 (= loc_1 2)))
 (let (($x519 (and $x432 (not (= $i2_main0_1 1)))))
 (let (($x495 (= H_2 H_1)))
 (let (($x496 (and (and true (= AH_2 AH_1)) $x495)))
 (let (($x475 (= $p5_main0_2 $p5_main0_1)))
 (let (($x472 (= $p4_main0_2 $p4_main0_1)))
 (let (($x476 (and (and (and (and $x464 (= $p3_main0_2 $p3_main0_1)) $x469) $x472) $x475)))
 (let (($x785 (and (and (and (or true invalidFree_1) (and true true)) $x476) $x489)))
 (let (($x436 (= $i2_main0_1 1)))
 (let (($x437 (and $x432 $x436)))
 (let (($x806 (and (=> $x437 (and (and (and $x785 $x496) $x788) $x503)) (=> $x519 (and (and (and $x801 $x489) $x788) $x575)))))
 (let (($x777 (= invalidFree_1 invalidFree_0)))
 (let (($x425 (= $r_main0_1 $r_main0_0)))
 (let (($x421 (= $i6_main0_1 $i6_main0_0)))
 (let (($x417 (= $i2_main0_1 $i2_main0_0)))
 (let (($x422 (and (and (and true (= $i1_free_g20_1 $i1_free_g20_0)) $x417) $x421)))
 (let (($x426 (and $x422 $x425)))
 (let (($x408 (= $p5_main0_1 $p5_main0_0)))
 (let (($x404 (= $p4_main0_1 $p4_main0_0)))
 (let (($x400 (= $p4_free_g20_1 $p4_free_g20_0)))
 (let (($x396 (= $p3_main0_1 $p3_main0_0)))
 (let (($x392 (= $p3_free_g20_1 $p3_free_g20_0)))
 (let (($x388 (= $p2_free_g20_1 $p2_free_g20_0)))
 (let (($x384 (= $p1_free_g10_1 $p1_free_g10_0)))
 (let (($x380 (= $p0_free_g20_1 $p0_free_g20_0)))
 (let (($x385 (and (and (and true (= $p0_free_g10_1 $p0_free_g10_0)) $x380) $x384)))
 (let (($x409 (and (and (and (and (and (and $x385 $x388) $x392) $x396) $x400) $x404) $x408)))
 (let (($x370 (= H_1 H1_1)))
 (let (($x367 (= AH_1 AH1_1)))
 (let (($x364 (= $p1_main0_1 $p1_main01_1)))
 (let (($x365 (and (and (= $M.0_1 $M.02_1) (= $p0_main0_1 $p0_main01_1)) $x364)))
 (let (($x372 (and (and (and $x365 $x367) $x370) true)))
 (let (($x338 (= $M.02_1 $p0_main01_1)))
 (let (($x766 (or $x338 invalidFree_0)))
 (let (($x340 (= $p1_main01_1 $p0_main01_1)))
 (let (($x767 (or $x340 invalidFree_0)))
 (let (($x344 (= AH1_1 (uplus AH_0 (pt l1_1 (Pt_R_1 1))))))
 (let (($x345 (= $p0_main01_1 l1_1)))
 (let (($x349 (= H1_1 (uplus H_0 (pt l1_1 (Pt_R_1 d1_1))))))
 (let (($x351 (and (and $x349 $x345) $x344)))
 (let (($x353 (= $M.01_1 nil)))
 (let (($x769 (or $x353 invalidFree_0)))
 (let (($x774 (and (and (and (and (and $x769 (or $x351 invalidFree_0)) $x767) $x766) $x372) $x409)))
 (let (($x324 (= loc_0 1)))
 (let (($x764 (not invalidFree_0)))
 (let (($x326 (and (and (= H_0 emp) (= AH_0 emp)) $x324)))
 (let (($x781 (and (and $x326 $x764) (=> $x324 (and (and (and $x774 $x426) $x777) $x432)))))
 (let (($x860 (and (and $x781 $x806) (and $x826 (=> $x677 (and (and (and $x854 $x749) $x753) $x757))))))
 (and $x860 invalidFree_3)))))))))))))))))))))))))))))))))))))))))))))))))))))))))))))))))))))))))))))))))))))))))))))))))))))))))))))))))))))))))))))))))))))))))))))))))))))))))))))))
(check-sat)
